117 27
1 1 2 6 9 36 37 38 39 40 41 42 43 44
1 0 2 7 10 45 46 47 48 49 50 51 52 53
1 0 1 8 11 54 55 56 57 58 59 60 61 62
1 0 4 5 9 63 64 65 66 67 68 69 70 71
1 1 3 5 10 72 73 74 75 76 77 78 79 80
1 2 3 4 11 81 82 83 84 85 86 87 88 89
1 3 7 8 9 90 91 92 93 94 95 96 97 98
1 4 6 8 10 99 100 101 102 103 104 105 106 107
1 5 6 7 11 108 109 110 111 112 113 114 115 116
1 13 14 18 21 36 45 54 63 72 81 90 99 108
1 12 14 19 22 37 46 55 64 73 82 91 100 109
1 12 13 20 23 38 47 56 65 74 83 92 101 110
1 12 16 17 21 39 48 57 66 75 84 93 102 111
1 13 15 17 22 40 49 58 67 76 85 94 103 112
1 14 15 16 23 41 50 59 68 77 86 95 104 113
1 15 19 20 21 42 51 60 69 78 87 96 105 114
1 16 18 20 22 43 52 61 70 79 88 97 106 115
1 17 18 19 23 44 53 62 71 80 89 98 107 116
1 25 26 30 33 36 50 58 69 74 82 93 107 115
1 24 26 31 34 41 46 57 65 79 81 98 103 114
1 24 25 32 35 40 48 56 64 72 89 97 105 113
1 24 28 29 33 42 47 55 66 80 88 90 104 112
1 25 27 29 34 38 52 54 71 76 87 95 100 111
1 26 27 28 35 37 45 62 70 78 86 94 102 110
1 27 31 32 33 39 53 61 63 77 85 96 101 109
1 28 30 32 34 44 49 60 68 73 84 92 106 108
1 29 30 31 35 43 51 59 67 75 83 91 99 116
